NAME : X_30_seed_123_id_3
TYPE : CVRP
DIMENSION : 237
EDGE_WEIGHT_TYPE : EUC_2D
CAPACITY : 18
NODE_COORD_SECTION
1	0	0
2	887	102
3	952	551
4	198	526
5	456	669
6	811	626
7	694	251
8	500	16
9	997	360
10	934	815
11	852	898
12	420	272
13	592	501
14	714	201
15	704	201
16	536	527
17	694	570
18	101	245
19	799	190
20	51	280
21	396	362
22	591	369
23	872	339
24	539	187
25	7	504
26	414	219
27	476	617
28	317	929
29	612	937
30	763	979
31	964	90
32	612	292
33	30	160
34	751	607
35	848	938
36	790	940
37	40	228
38	762	888
39	592	623
40	529	909
41	911	124
42	279	486
43	706	908
44	806	20
45	572	914
46	719	283
47	68	391
48	398	501
49	200	913
50	531	227
51	684	58
52	747	665
53	961	933
54	901	2
55	916	470
56	601	816
57	505	789
58	83	428
59	285	415
60	367	769
61	943	359
62	806	869
63	285	671
64	794	523
65	941	470
66	846	187
67	610	488
68	305	234
69	962	846
70	580	603
71	423	649
72	685	981
73	386	177
74	806	741
75	99	939
76	833	181
77	952	728
78	165	669
79	325	718
80	660	57
81	83	396
82	586	67
83	692	417
84	461	186
85	825	165
86	121	907
87	205	55
88	767	397
89	344	274
90	123	632
91	81	758
92	506	240
93	331	895
94	578	740
95	949	840
96	604	27
97	244	725
98	896	907
99	67	471
100	446	444
101	386	901
102	640	720
103	642	178
104	2	887
105	648	145
106	608	281
107	503	661
108	507	760
109	448	850
110	325	409
111	980	829
112	836	721
113	127	526
114	915	303
115	510	411
116	696	676
117	818	584
118	729	19
119	234	646
120	178	57
121	8	32
122	725	448
123	135	49
124	886	737
125	815	62
126	998	636
127	88	352
128	456	887
129	491	491
130	240	208
131	376	842
132	82	597
133	264	393
134	216	660
135	714	531
136	907	230
137	945	462
138	517	400
139	824	324
140	78	223
141	763	879
142	690	578
143	642	718
144	175	95
145	839	645
146	4	878
147	527	237
148	52	784
149	806	900
150	599	858
151	280	532
152	621	135
153	685	33
154	974	290
155	281	867
156	481	802
157	502	436
158	782	834
159	424	392
160	163	435
161	106	887
162	441	985
163	521	157
164	636	227
165	953	976
166	216	330
167	954	759
168	622	414
169	587	152
170	985	422
171	55	460
172	157	258
173	542	127
174	212	45
175	674	887
176	604	140
177	797	453
178	138	778
179	579	241
180	405	353
181	477	68
182	286	603
183	414	342
184	514	162
185	340	571
186	852	521
187	250	459
188	666	868
189	139	854
190	597	470
191	598	910
192	665	411
193	396	98
194	484	555
195	37	771
196	205	302
197	996	519
198	609	961
199	519	728
200	346	586
201	826	58
202	528	377
203	413	818
204	485	568
205	375	137
206	801	121
207	654	246
208	853	511
209	408	141
210	664	876
211	180	272
212	362	321
213	348	84
214	303	897
215	124	446
216	307	863
217	71	355
218	436	474
219	282	56
220	617	918
221	188	267
222	325	170
223	151	100
224	568	24
225	787	174
226	684	740
227	133	886
228	724	414
229	608	111
230	208	121
231	416	624
232	321	116
233	487	992
234	385	428
235	909	770
236	217	727
237	380	523
DEMAND_SECTION
1	0
2	1
3	1
4	1
5	1
6	1
7	1
8	1
9	1
10	1
11	1
12	1
13	1
14	1
15	1
16	1
17	1
18	1
19	1
20	1
21	1
22	1
23	1
24	1
25	1
26	1
27	1
28	1
29	1
30	1
31	1
32	1
33	1
34	1
35	1
36	1
37	1
38	1
39	1
40	1
41	1
42	1
43	1
44	1
45	1
46	1
47	1
48	1
49	1
50	1
51	1
52	1
53	1
54	1
55	1
56	1
57	1
58	1
59	1
60	1
61	1
62	1
63	1
64	1
65	1
66	1
67	1
68	1
69	1
70	1
71	1
72	1
73	1
74	1
75	1
76	1
77	1
78	1
79	1
80	1
81	1
82	1
83	1
84	1
85	1
86	1
87	1
88	1
89	1
90	1
91	1
92	1
93	1
94	1
95	1
96	1
97	1
98	1
99	1
100	1
101	1
102	1
103	1
104	1
105	1
106	1
107	1
108	1
109	1
110	1
111	1
112	1
113	1
114	1
115	1
116	1
117	1
118	1
119	1
120	1
121	1
122	1
123	1
124	1
125	1
126	1
127	1
128	1
129	1
130	1
131	1
132	1
133	1
134	1
135	1
136	1
137	1
138	1
139	1
140	1
141	1
142	1
143	1
144	1
145	1
146	1
147	1
148	1
149	1
150	1
151	1
152	1
153	1
154	1
155	1
156	1
157	1
158	1
159	1
160	1
161	1
162	1
163	1
164	1
165	1
166	1
167	1
168	1
169	1
170	1
171	1
172	1
173	1
174	1
175	1
176	1
177	1
178	1
179	1
180	1
181	1
182	1
183	1
184	1
185	1
186	1
187	1
188	1
189	1
190	1
191	1
192	1
193	1
194	1
195	1
196	1
197	1
198	1
199	1
200	1
201	1
202	1
203	1
204	1
205	1
206	1
207	1
208	1
209	1
210	1
211	1
212	1
213	1
214	1
215	1
216	1
217	1
218	1
219	1
220	1
221	1
222	1
223	1
224	1
225	1
226	1
227	1
228	1
229	1
230	1
231	1
232	1
233	1
234	1
235	1
236	1
237	1
DEPOT_SECTION
1
-1
EOF
